This is Ipopt version 3.14.16, running with linear solver MUMPS 5.7.3.

Number of nonzeros in equality constraint Jacobian...:        0
Number of nonzeros in inequality constraint Jacobian.:      196
Number of nonzeros in Lagrangian Hessian.............:        0

Total number of variables............................:       14
                     variables with only lower bounds:        0
                variables with lower and upper bounds:       14
                     variables with only upper bounds:        0
Total number of equality constraints.................:        0
Total number of inequality constraints...............:       14
        inequality constraints with only lower bounds:        0
   inequality constraints with lower and upper bounds:        0
        inequality constraints with only upper bounds:       14

iter    objective    inf_pr   inf_du lg(mu)  ||d||  lg(rg) alpha_du alpha_pr  ls
   0  2.3583614e-02 0.00e+00 1.00e+00   0.0 0.00e+00    -  0.00e+00 0.00e+00   0
   1  2.3482971e-02 0.00e+00 5.01e-02  -5.6 4.59e-02    -  9.50e-01 1.00e+00h  1
   2  2.3437223e-02 0.00e+00 3.72e-03  -2.8 4.70e-02    -  9.90e-01 1.00e+00h  1
   3  1.5618357e-02 0.00e+00 1.64e-03  -3.5 5.32e-01    -  9.88e-01 1.00e+00h  1
   4  8.6245442e-03 0.00e+00 3.31e-03  -3.9 4.85e+00    -  1.00e+00 1.00e+00h  1
   5  8.4511269e-03 0.00e+00 8.48e-04  -4.2 1.68e+01    -  9.78e-01 1.00e+00h  1
   6  8.1327666e-03 0.00e+00 6.47e-04  -4.9 4.12e+00    -  1.00e+00 1.00e+00h  1

Number of Iterations....: 6

                                   (scaled)                 (unscaled)
Objective...............:   8.1327665653348064e-03    8.1327665653348064e-03
Dual infeasibility......:   6.4710229803362500e-04    6.4710229803362500e-04
Constraint violation....:   0.0000000000000000e+00    0.0000000000000000e+00
Variable bound violation:   0.0000000000000000e+00    0.0000000000000000e+00
Complementarity.........:   2.3189590616227855e-05    2.3189590616227855e-05
Overall NLP error.......:   6.4710229803362500e-04    6.4710229803362500e-04


Number of objective function evaluations             = 7
Number of objective gradient evaluations             = 7
Number of equality constraint evaluations            = 0
Number of inequality constraint evaluations          = 7
Number of equality constraint Jacobian evaluations   = 0
Number of inequality constraint Jacobian evaluations = 7
Number of Lagrangian Hessian evaluations             = 0
Total seconds in IPOPT                               = 2.944

EXIT: Optimal Solution Found.
